(declare-fun temp1222_2 () (_ BitVec 64))
(declare-fun temp1222_1 () (_ BitVec 64))
(declare-fun temp1222_3 () (_ BitVec 64))
(declare-fun var460169 () (_ BitVec 64))
(declare-fun temp1222_4 () (_ BitVec 64))
(declare-fun var460170 () (_ BitVec 64))
(declare-fun temp1222_5 () (_ BitVec 64))
(declare-fun var984886 () (_ BitVec 64))
(declare-fun var1183964 () (_ BitVec 64))
(declare-fun temp1222_6 () (_ BitVec 64))
(declare-fun temp1222_7 () (_ BitVec 64))
(declare-fun var460297 () (_ BitVec 64))
(declare-fun k!0 () Bool)
(declare-fun ARGNAME_n_NAMEEND () (_ BitVec 64))
(declare-fun temp1222_8 () (_ BitVec 64))
(declare-fun ARGNAME_input_NAMEEND_DIM () (_ BitVec 64))
(declare-fun var1640427 () (_ BitVec 64))
(declare-fun temp1222_10 () (_ BitVec 64))
(declare-fun temp1222_9 () (_ BitVec 64))
(declare-fun var1706871 () (_ BitVec 64))
(declare-fun temp1222_11 () (_ BitVec 64))
(declare-fun var1773320 () (_ BitVec 64))
(declare-fun var1838865 () (_ BitVec 64))
(declare-fun temp1222_13 () (_ BitVec 64))
(declare-fun temp1222_12 () (_ BitVec 64))
(declare-fun temp1222_14 () (_ BitVec 64))
(declare-fun var2035447 () (_ BitVec 64))
(declare-fun temp1222_15 () (_ BitVec 64))
(declare-fun var1640488 () (_ BitVec 64))
(declare-fun var1640530 () (_ BitVec 64))
(declare-fun temp1222_17 () (_ BitVec 64))
(declare-fun temp1222_16 () (_ BitVec 64))
(declare-fun temp1222_18 () (_ BitVec 64))
(declare-fun var2493432 () (_ BitVec 64))
(declare-fun temp1222_19 () (_ BitVec 64))
(declare-fun var2493482 () (_ BitVec 64))
(declare-fun temp1222_20 () (_ BitVec 64))
(declare-fun var1640475 () (_ BitVec 64))
(declare-fun var1640474 () (_ BitVec 64))
(declare-fun temp1222_21 () (_ BitVec 64))
(declare-fun var1640479 () (_ BitVec 64))
(declare-fun temp1222_22 () (_ BitVec 64))
(declare-fun var1640481 () (_ BitVec 64))
(declare-fun temp1222_23 () (_ BitVec 64))
(declare-fun var3737806 () (_ BitVec 64))
(declare-fun temp1222_24 () (_ BitVec 64))
(declare-fun temp1222_25 () (_ BitVec 64))
(declare-fun var3737836 () (_ BitVec 64))
(declare-fun var3737883 () (_ BitVec 64))
(declare-fun var3737804 () (_ BitVec 64))
(declare-fun var460364 () (_ BitVec 64))
(declare-fun var460387 () (_ BitVec 64))
(declare-fun temp1222_26 () (_ BitVec 64))
(assert (= temp1222_2 #x0000000000000000))
(assert (= temp1222_1 temp1222_2))
(assert (= temp1222_3 #x0000000000000000))
(assert (= var460169 temp1222_3))
(assert (= temp1222_4 #x0000000000000001))
(assert (= var460170 temp1222_4))
(assert (= temp1222_5 #x0000000000000000))
(assert (= var984886 temp1222_5))
(assert (= var1183964 var984886))
(assert (= temp1222_6 #x0000000000000001))
(assert (= var460297
   (ite (bvslt ARGNAME_n_NAMEEND temp1222_6)
        #x0000000000000001
        #x0000000000000000)))
(assert (= temp1222_7 #x0000000000000000))
(assert (= var460297 temp1222_7))
(assert (= temp1222_8 #x0000000000000001))
(assert (= var1640427 (bvshl ARGNAME_input_NAMEEND_DIM temp1222_8)))
(assert (= temp1222_10 #x0000000000000000))
(assert (= temp1222_9 temp1222_10))
(assert (= var1706871 var1640427))
(assert (= temp1222_11 #x0000000000000005))
(assert (= var1773320 temp1222_11))
(assert (= var1838865 var1706871))
(assert (= temp1222_13 #x0000000000000000))
(assert (= temp1222_12 temp1222_13))
(assert (= temp1222_14 #x0000000000000000))
(assert (= var2035447 temp1222_14))
(assert (= temp1222_15 #x0000000000000000))
(assert (= var1640488 temp1222_15))
(assert (= var1640530 var1640488))
(assert (= temp1222_17 #x0000000000000000))
(assert (= temp1222_16 temp1222_17))
(assert (= temp1222_18 #x0000000000000001))
(assert (= var2493432 temp1222_18))
(assert (= temp1222_19 #x0000000000000000))
(assert (= var2493482 temp1222_19))
(assert (= temp1222_20 #x0000000000000000))
(assert (= var2493482 temp1222_20))
(assert (= var1640475 var1640530))
(assert (= var1640474 var1640475))
(assert (= temp1222_21 #x0000000000000001))
(assert (= var1640479 (bvand var1640474 temp1222_21)))
(assert (= temp1222_22 #x0000000000000000))
(assert (= var1640481
   (ite (= var1640479 temp1222_22) #x0000000000000001 #x0000000000000000)))
(assert (= temp1222_23 #x0000000000000001))
(assert (= var1640481 temp1222_23))
(assert (= var3737806 var460169))
(assert (= temp1222_24 #x0000000000000000))
(assert (= temp1222_25 #x0000000000000002))
(assert (= var3737836 (ite (= var3737806 #x0000000000000001) temp1222_24 temp1222_25)))
(assert (= var3737883 var3737836))
(assert (= var3737804 var3737883))
(assert (= var460364 var3737804))
(assert (= var460387 var460364))
(assert (= temp1222_26 #x0000000000000000))
(assert (= var460169 temp1222_26))
(model-add temp1222_2 () (_ BitVec 64) #x0000000000000000)
(model-add temp1222_1 () (_ BitVec 64) #x0000000000000000)
(model-add temp1222_3 () (_ BitVec 64) #x0000000000000000)
(model-add var460169 () (_ BitVec 64) #x0000000000000000)
(model-add temp1222_4 () (_ BitVec 64) #x0000000000000001)
(model-add var460170 () (_ BitVec 64) #x0000000000000001)
(model-add temp1222_5 () (_ BitVec 64) #x0000000000000000)
(model-add var984886 () (_ BitVec 64) #x0000000000000000)
(model-add var1183964 () (_ BitVec 64) #x0000000000000000)
(model-add temp1222_6 () (_ BitVec 64) #x0000000000000001)
(model-add temp1222_7 () (_ BitVec 64) #x0000000000000000)
(model-add var460297 () (_ BitVec 64) #x0000000000000000)
(model-del k!0)
(model-add ARGNAME_n_NAMEEND
           ()
           (_ BitVec 64)
           (ite (or k!0 (= #x0000000000000001 #x8000000000000000))
                #x0000000000000001
                (bvsub #x0000000000000001 #x0000000000000001)))





